block_table_value:
[[1 1 1 1 1 1 1 1]
 [1 1 1 1 1 1 1 1]
 [1 1 1 1 1 1 1 1]
 [1 1 1 1 1 1 1 1]
 [0 0 0 0 1 1 1 1]
 [0 0 0 0 1 1 1 1]
 [0 0 0 0 1 1 1 1]
 [0 0 0 0 1 1 1 1]]
Set parameter Username
Set parameter LicenseID to value 2603695
Academic license - for non-commercial use only - expires 2025-12-26
Gurobi Optimizer version 11.0.3 build v11.0.3rc0 (linux64 - "Debian GNU/Linux 12 (bookworm)")

CPU model: Intel(R) Xeon(R) Gold 6252 CPU @ 2.10GHz, instruction set [SSE2|AVX|AVX2|AVX512]
Thread count: 48 physical cores, 96 logical processors, using up to 32 threads

Optimize a model with 752 rows, 497 columns and 2272 nonzeros
Model fingerprint: 0x0a180113
Variable types: 0 continuous, 497 integer (320 binary)
Coefficient statistics:
  Matrix range     [1e+00, 2e+00]
  Objective range  [1e+00, 1e+00]
  Bounds range     [1e+00, 1e+00]
  RHS range        [1e+00, 5e+00]
Presolve removed 112 rows and 48 columns
Presolve time: 0.01s
Presolved: 640 rows, 449 columns, 2048 nonzeros
Variable types: 0 continuous, 449 integer (432 binary)
Found heuristic solution: objective 14.0000000

Root relaxation: objective 3.500000e+00, 703 iterations, 0.02 seconds (0.01 work units)

    Nodes    |    Current Node    |     Objective Bounds      |     Work
 Expl Unexpl |  Obj  Depth IntInf | Incumbent    BestBd   Gap | It/Node Time

     0     0    3.50000    0  449   14.00000    3.50000  75.0%     -    0s
H    0     0                      12.0000000    3.50000  70.8%     -    0s
H    0     0                      11.0000000    3.50000  68.2%     -    0s
     0     0    4.29157    0  397   11.00000    4.29157  61.0%     -    0s
     0     0    5.00000    0  321   11.00000    5.00000  54.5%     -    0s
     0     0    5.00000    0  319   11.00000    5.00000  54.5%     -    0s
     0     0    5.00000    0  314   11.00000    5.00000  54.5%     -    0s
     0     0    5.00000    0  316   11.00000    5.00000  54.5%     -    0s
     0     0    5.00000    0  314   11.00000    5.00000  54.5%     -    0s
     0     0    5.02740    0  351   11.00000    5.02740  54.3%     -    0s
H    0     0                      10.0000000    5.02740  49.7%     -    0s
     0     0    5.04638    0  381   10.00000    5.04638  49.5%     -    0s
H    0     0                       9.0000000    5.05087  43.9%     -    0s
     0     0    5.05087    0  382    9.00000    5.05087  43.9%     -    0s
     0     0    5.05114    0  376    9.00000    5.05114  43.9%     -    0s
     0     0    5.06223    0  397    9.00000    5.06223  43.8%     -    0s
     0     0    5.06370    0  394    9.00000    5.06370  43.7%     -    0s
     0     0    5.06439    0  389    9.00000    5.06439  43.7%     -    0s
     0     0    5.06452    0  379    9.00000    5.06452  43.7%     -    0s
     0     0    5.06452    0  379    9.00000    5.06452  43.7%     -    0s
     0     1    6.00000    0  379    9.00000    6.00000  33.3%     -    0s
H   45    53                       8.0000000    6.00000  25.0%   262    1s
H  269   179                       7.0000000    6.00000  14.3%   205    4s
   547    18    6.00000   13  240    7.00000    6.00000  14.3%   151    5s

Cutting planes:
  Cover: 1
  MIR: 65
  Zero half: 10
  RLT: 58

Explored 611 nodes (102344 simplex iterations) in 5.11 seconds (4.68 work units)
Thread count was 32 (of 96 available processors)

Solution count 7: 7 8 9 ... 14

Optimal solution found (tolerance 1.00e-04)
Best objective 7.000000000000e+00, best bound 7.000000000000e+00, gap 0.0000%
LP solve time: 5.116427898406982 s
Optimal value: 7.0
LP result:
x_0_1_0: -0.0
x_0_1_1: 1.0
x_0_1_2: -0.0
x_0_1_3: -0.0
x_0_1_4: -0.0
x_0_1_5: 0.0
x_0_1_6: -0.0
x_0_1_7: -0.0
x_0_2_0: 0.0
x_0_2_1: -0.0
x_0_2_2: 0.0
x_0_2_3: 0.0
x_0_2_4: 1.0
x_0_2_5: -0.0
x_0_2_6: 0.0
x_0_2_7: -0.0
x_0_3_0: 0.0
x_0_3_1: -0.0
x_0_3_2: -0.0
x_0_3_3: 1.0
x_0_3_4: 0.0
x_0_3_5: -0.0
x_0_3_6: -0.0
x_0_3_7: -0.0
x_0_4_0: 1.0
x_0_4_1: -0.0
x_0_4_2: -0.0
x_0_4_3: -0.0
x_0_4_4: -0.0
x_0_4_5: -0.0
x_0_4_6: 0.0
x_0_4_7: -0.0
x_0_5_0: -0.0
x_0_5_1: 1.0
x_0_5_2: -0.0
x_0_5_3: -0.0
x_0_5_4: -0.0
x_0_5_5: 0.0
x_0_5_6: 0.0
x_0_5_7: -0.0
x_0_6_0: -0.0
x_0_6_1: 0.0
x_0_6_2: -0.0
x_0_6_3: 1.0
x_0_6_4: -0.0
x_0_6_5: -0.0
x_0_6_6: -0.0
x_0_6_7: -0.0
x_0_7_0: 0.0
x_0_7_1: -0.0
x_0_7_2: 0.0
x_0_7_3: -0.0
x_0_7_4: 1.0
x_0_7_5: 0.0
x_0_7_6: -0.0
x_0_7_7: -0.0
x_1_0_0: 0.0
x_1_0_1: -0.0
x_1_0_2: -0.0
x_1_0_3: 0.0
x_1_0_4: -0.0
x_1_0_5: -0.0
x_1_0_6: -0.0
x_1_0_7: 1.0
x_1_2_0: 0.0
x_1_2_1: -0.0
x_1_2_2: 1.0
x_1_2_3: 0.0
x_1_2_4: 0.0
x_1_2_5: -0.0
x_1_2_6: 0.0
x_1_2_7: -0.0
x_1_3_0: -0.0
x_1_3_1: 0.0
x_1_3_2: -0.0
x_1_3_3: 1.0
x_1_3_4: -0.0
x_1_3_5: -0.0
x_1_3_6: -0.0
x_1_3_7: -0.0
x_1_4_0: -0.0
x_1_4_1: -0.0
x_1_4_2: -0.0
x_1_4_3: -0.0
x_1_4_4: -0.0
x_1_4_5: -0.0
x_1_4_6: -0.0
x_1_4_7: 1.0
x_1_5_0: 0.0
x_1_5_1: 1.0
x_1_5_2: -0.0
x_1_5_3: -0.0
x_1_5_4: -0.0
x_1_5_5: 0.0
x_1_5_6: 0.0
x_1_5_7: -0.0
x_1_6_0: 0.0
x_1_6_1: 0.0
x_1_6_2: -0.0
x_1_6_3: 1.0
x_1_6_4: -0.0
x_1_6_5: -0.0
x_1_6_6: -0.0
x_1_6_7: -0.0
x_1_7_0: -0.0
x_1_7_1: -0.0
x_1_7_2: 1.0
x_1_7_3: 0.0
x_1_7_4: -0.0
x_1_7_5: -0.0
x_1_7_6: -0.0
x_1_7_7: 0.0
x_2_0_0: 1.0
x_2_0_1: -0.0
x_2_0_2: -0.0
x_2_0_3: -0.0
x_2_0_4: 0.0
x_2_0_5: 0.0
x_2_0_6: -0.0
x_2_0_7: -0.0
x_2_1_0: -0.0
x_2_1_1: 1.0
x_2_1_2: -0.0
x_2_1_3: -0.0
x_2_1_4: -0.0
x_2_1_5: -0.0
x_2_1_6: -0.0
x_2_1_7: -0.0
x_2_3_0: 0.0
x_2_3_1: 0.0
x_2_3_2: -0.0
x_2_3_3: -0.0
x_2_3_4: -0.0
x_2_3_5: 0.0
x_2_3_6: 1.0
x_2_3_7: 0.0
x_2_4_0: 1.0
x_2_4_1: -0.0
x_2_4_2: -0.0
x_2_4_3: -0.0
x_2_4_4: -0.0
x_2_4_5: -0.0
x_2_4_6: 0.0
x_2_4_7: -0.0
x_2_5_0: -0.0
x_2_5_1: 1.0
x_2_5_2: -0.0
x_2_5_3: -0.0
x_2_5_4: -0.0
x_2_5_5: -0.0
x_2_5_6: 0.0
x_2_5_7: -0.0
x_2_6_0: 0.0
x_2_6_1: 0.0
x_2_6_2: -0.0
x_2_6_3: -0.0
x_2_6_4: -0.0
x_2_6_5: -0.0
x_2_6_6: 1.0
x_2_6_7: -0.0
x_2_7_0: -0.0
x_2_7_1: 0.0
x_2_7_2: 1.0
x_2_7_3: -0.0
x_2_7_4: -0.0
x_2_7_5: -0.0
x_2_7_6: -0.0
x_2_7_7: -0.0
x_3_0_0: 1.0
x_3_0_1: -0.0
x_3_0_2: -0.0
x_3_0_3: -0.0
x_3_0_4: 0.0
x_3_0_5: -0.0
x_3_0_6: 0.0
x_3_0_7: -0.0
x_3_1_0: -0.0
x_3_1_1: -0.0
x_3_1_2: -0.0
x_3_1_3: -0.0
x_3_1_4: 0.0
x_3_1_5: 1.0
x_3_1_6: -0.0
x_3_1_7: -0.0
x_3_2_0: 0.0
x_3_2_1: -0.0
x_3_2_2: 1.0
x_3_2_3: -0.0
x_3_2_4: -0.0
x_3_2_5: -0.0
x_3_2_6: -0.0
x_3_2_7: -0.0
x_3_4_0: 1.0
x_3_4_1: -0.0
x_3_4_2: -0.0
x_3_4_3: -0.0
x_3_4_4: 0.0
x_3_4_5: -0.0
x_3_4_6: -0.0
x_3_4_7: -0.0
x_3_5_0: -0.0
x_3_5_1: -0.0
x_3_5_2: -0.0
x_3_5_3: -0.0
x_3_5_4: 0.0
x_3_5_5: 1.0
x_3_5_6: 0.0
x_3_5_7: -0.0
x_3_6_0: -0.0
x_3_6_1: -0.0
x_3_6_2: -0.0
x_3_6_3: 1.0
x_3_6_4: -0.0
x_3_6_5: -0.0
x_3_6_6: -0.0
x_3_6_7: -0.0
x_3_7_0: 0.0
x_3_7_1: -0.0
x_3_7_2: 1.0
x_3_7_3: 0.0
x_3_7_4: -0.0
x_3_7_5: -0.0
x_3_7_6: -0.0
x_3_7_7: -0.0
x_4_5_0: -0.0
x_4_5_1: 0.0
x_4_5_2: -0.0
x_4_5_3: -0.0
x_4_5_4: 0.0
x_4_5_5: 0.0
x_4_5_6: 1.0
x_4_5_7: -0.0
x_4_6_0: -0.0
x_4_6_1: 0.0
x_4_6_2: -0.0
x_4_6_3: -0.0
x_4_6_4: 0.0
x_4_6_5: -0.0
x_4_6_6: 1.0
x_4_6_7: -0.0
x_4_7_0: -0.0
x_4_7_1: 0.0
x_4_7_2: 0.0
x_4_7_3: 0.0
x_4_7_4: 1.0
x_4_7_5: 0.0
x_4_7_6: 0.0
x_4_7_7: -0.0
x_5_4_0: -0.0
x_5_4_1: -0.0
x_5_4_2: -0.0
x_5_4_3: -0.0
x_5_4_4: 1.0
x_5_4_5: 0.0
x_5_4_6: -0.0
x_5_4_7: -0.0
x_5_6_0: -0.0
x_5_6_1: 0.0
x_5_6_2: -0.0
x_5_6_3: 0.0
x_5_6_4: 0.0
x_5_6_5: 1.0
x_5_6_6: -0.0
x_5_6_7: -0.0
x_5_7_0: -0.0
x_5_7_1: 0.0
x_5_7_2: -0.0
x_5_7_3: 0.0
x_5_7_4: 1.0
x_5_7_5: 0.0
x_5_7_6: -0.0
x_5_7_7: -0.0
x_6_4_0: -0.0
x_6_4_1: -0.0
x_6_4_2: -0.0
x_6_4_3: -0.0
x_6_4_4: -0.0
x_6_4_5: -0.0
x_6_4_6: 0.0
x_6_4_7: 1.0
x_6_5_0: 0.0
x_6_5_1: -0.0
x_6_5_2: -0.0
x_6_5_3: -0.0
x_6_5_4: -0.0
x_6_5_5: 0.0
x_6_5_6: 1.0
x_6_5_7: -0.0
x_6_7_0: -0.0
x_6_7_1: -0.0
x_6_7_2: -0.0
x_6_7_3: 0.0
x_6_7_4: -0.0
x_6_7_5: 0.0
x_6_7_6: 0.0
x_6_7_7: 1.0
x_7_4_0: -0.0
x_7_4_1: -0.0
x_7_4_2: -0.0
x_7_4_3: -0.0
x_7_4_4: -0.0
x_7_4_5: -0.0
x_7_4_6: 0.0
x_7_4_7: 1.0
x_7_5_0: -0.0
x_7_5_1: -0.0
x_7_5_2: -0.0
x_7_5_3: -0.0
x_7_5_4: -0.0
x_7_5_5: 1.0
x_7_5_6: 0.0
x_7_5_7: -0.0
x_7_6_0: -0.0
x_7_6_1: -0.0
x_7_6_2: -0.0
x_7_6_3: 0.0
x_7_6_4: -0.0
x_7_6_5: 1.0
x_7_6_6: 0.0
x_7_6_7: -0.0
a_0_0: 1.0
a_0_1: 0.0
a_0_2: 1.0
a_0_3: 1.0
a_0_4: -0.0
a_0_5: -0.0
a_0_6: 0.0
a_0_7: 0.0
a_1_0: 1.0
a_1_1: 1.0
a_1_2: 1.0
a_1_3: -0.0
a_1_4: 0.0
a_1_5: 0.0
a_1_6: 0.0
a_1_7: -0.0
a_2_0: 0.0
a_2_1: 1.0
a_2_2: 1.0
a_2_3: 1.0
a_2_4: -0.0
a_2_5: -0.0
a_2_6: 0.0
a_2_7: -0.0
a_3_0: 1.0
a_3_1: 1.0
a_3_2: -0.0
a_3_3: 1.0
a_3_4: 0.0
a_3_5: -0.0
a_3_6: 0.0
a_3_7: -0.0
a_4_0: 1.0
a_4_1: 0.0
a_4_2: 0.0
a_4_3: 0.0
a_4_4: 1.0
a_4_5: 1.0
a_4_6: -0.0
a_4_7: 0.0
a_5_0: 0.0
a_5_1: 0.0
a_5_2: -0.0
a_5_3: 1.0
a_5_4: 0.0
a_5_5: 1.0
a_5_6: 0.0
a_5_7: 1.0
a_6_0: -0.0
a_6_1: -0.0
a_6_2: 1.0
a_6_3: -0.0
a_6_4: 1.0
a_6_5: 0.0
a_6_6: 1.0
a_6_7: 0.0
a_7_0: -0.0
a_7_1: 1.0
a_7_2: 0.0
a_7_3: -0.0
a_7_4: -0.0
a_7_5: 0.0
a_7_6: 1.0
a_7_7: 1.0
b_0_0: 1.0
b_0_1: -0.0
b_0_2: 0.0
b_0_3: -0.0
b_0_4: 1.0
b_0_5: 0.0
b_0_6: -0.0
b_0_7: 0.0
b_1_0: -0.0
b_1_1: 1.0
b_1_2: -0.0
b_1_3: 0.0
b_1_4: -0.0
b_1_5: 1.0
b_1_6: 0.0
b_1_7: 0.0
b_2_0: -0.0
b_2_1: -0.0
b_2_2: 1.0
b_2_3: -0.0
b_2_4: -0.0
b_2_5: -0.0
b_2_6: -0.0
b_2_7: 1.0
b_3_0: -0.0
b_3_1: 0.0
b_3_2: 0.0
b_3_3: 1.0
b_3_4: -0.0
b_3_5: -0.0
b_3_6: 1.0
b_3_7: -0.0
b_4_0: 0.0
b_4_1: 0.0
b_4_2: 1.0
b_4_3: 0.0
b_4_4: 1.0
b_4_5: 0.0
b_4_6: 0.0
b_4_7: 1.0
b_5_0: -0.0
b_5_1: 1.0
b_5_2: -0.0
b_5_3: -0.0
b_5_4: -0.0
b_5_5: 1.0
b_5_6: 1.0
b_5_7: 0.0
b_6_0: -0.0
b_6_1: -0.0
b_6_2: 0.0
b_6_3: 1.0
b_6_4: 0.0
b_6_5: 1.0
b_6_6: 1.0
b_6_7: -0.0
b_7_0: 1.0
b_7_1: 0.0
b_7_2: -0.0
b_7_3: 0.0
b_7_4: 1.0
b_7_5: -0.0
b_7_6: 0.0
b_7_7: 1.0
A_0: 2.0
B_0: 1.0
C_0: 3.0
D_0: 1.0
Cin_0: 7.0
Cout_0: 7.0
A_1: 2.0
B_1: 1.0
C_1: 3.0
D_1: 1.0
Cin_1: 7.0
Cout_1: 7.0
A_2: 2.0
B_2: 1.0
C_2: 3.0
D_2: 1.0
Cin_2: 7.0
Cout_2: 7.0
A_3: 2.0
B_3: 1.0
C_3: 3.0
D_3: 1.0
Cin_3: 7.0
Cout_3: 7.0
A_4: 2.0
B_4: 2.0
C_4: 1.0
D_4: 2.0
Cin_4: 7.0
Cout_4: 7.0
A_5: 2.0
B_5: 2.0
C_5: 1.0
D_5: 2.0
Cin_5: 7.0
Cout_5: 7.0
A_6: 2.0
B_6: 2.0
C_6: 1.0
D_6: 2.0
Cin_6: 7.0
Cout_6: 7.0
A_7: 2.0
B_7: 2.0
C_7: 1.0
D_7: 2.0
Cin_7: 7.0
Cout_7: 7.0
Comm_Volume: 7.0
Allocation Matrix:
0  1  4  3  0  1  3  4  
7  1  2  3  7  1  3  2  
0  1  2  6  0  1  6  2  
0  5  2  3  0  5  3  2  
/  /  /  /  4  6  6  4  
/  /  /  /  4  5  5  4  
/  /  /  /  7  6  6  7  
/  /  /  /  7  5  5  7  
